<?xml version = "1.0" standalone="yes"?>
<!-- This file has been generated by DOcplex version 2.23.222  -->
<CPLEXSolution version="1.0">
 <header
   problemName="CVRP"
   objectiveValue="19603.1"
  />
 <variables>
  <variable name="x_0_4" index="3" value="1.00000"/>
  <variable name="x_0_5" index="4" value="1.00000"/>
  <variable name="x_0_6" index="5" value="1.00000"/>
  <variable name="x_0_7" index="6" value="1.00000"/>
  <variable name="x_0_9" index="8" value="1.00000"/>
  <variable name="x_0_10" index="9" value="1.00000"/>
  <variable name="x_0_11" index="10" value="1.00000"/>
  <variable name="x_0_12" index="11" value="1.00000"/>
  <variable name="x_0_14" index="13" value="1.00000"/>
  <variable name="x_0_15" index="14" value="1.00000"/>
  <variable name="x_0_16" index="15" value="1.00000"/>
  <variable name="x_0_17" index="16" value="1.00000"/>
  <variable name="x_0_20" index="19" value="1.00000"/>
  <variable name="x_0_22" index="21" value="1.00000"/>
  <variable name="x_0_23" index="22" value="1.00000"/>
  <variable name="x_0_26" index="25" value="1.00000"/>
  <variable name="x_0_27" index="26" value="1.00000"/>
  <variable name="x_0_29" index="28" value="1.00000"/>
  <variable name="x_1_0" index="30" value="1.00000"/>
  <variable name="x_2_24" index="83" value="1.00000"/>
  <variable name="x_3_28" index="117" value="1.00000"/>
  <variable name="x_4_13" index="132" value="1.00000"/>
  <variable name="x_5_0" index="150" value="1.00000"/>
  <variable name="x_6_0" index="180" value="1.00000"/>
  <variable name="x_7_1" index="211" value="1.00000"/>
  <variable name="x_8_0" index="240" value="1.00000"/>
  <variable name="x_9_18" index="287" value="1.00000"/>
  <variable name="x_10_2" index="302" value="1.00000"/>
  <variable name="x_11_25" index="354" value="1.00000"/>
  <variable name="x_12_0" index="360" value="1.00000"/>
  <variable name="x_13_0" index="390" value="1.00000"/>
  <variable name="x_14_0" index="420" value="1.00000"/>
  <variable name="x_15_0" index="450" value="1.00000"/>
  <variable name="x_16_8" index="488" value="1.00000"/>
  <variable name="x_17_21" index="530" value="1.00000"/>
  <variable name="x_18_3" index="543" value="1.00000"/>
  <variable name="x_19_0" index="570" value="1.00000"/>
  <variable name="x_20_0" index="600" value="1.00000"/>
  <variable name="x_21_0" index="630" value="1.00000"/>
  <variable name="x_22_30" index="689" value="1.00000"/>
  <variable name="x_23_0" index="690" value="1.00000"/>
  <variable name="x_24_0" index="720" value="1.00000"/>
  <variable name="x_25_0" index="750" value="1.00000"/>
  <variable name="x_26_19" index="799" value="1.00000"/>
  <variable name="x_27_0" index="810" value="1.00000"/>
  <variable name="x_28_0" index="840" value="1.00000"/>
  <variable name="x_29_0" index="870" value="1.00000"/>
  <variable name="x_30_0" index="900" value="1.00000"/>
  <variable name="u_1" index="930" value="65.00000"/>
  <variable name="u_2" index="931" value="55.00000"/>
  <variable name="u_3" index="932" value="62.00000"/>
  <variable name="u_4" index="933" value="28.00000"/>
  <variable name="u_5" index="934" value="69.00000"/>
  <variable name="u_6" index="935" value="67.00000"/>
  <variable name="u_7" index="936" value="27.00000"/>
  <variable name="u_8" index="937" value="78.00000"/>
  <variable name="u_9" index="938" value="8.00000"/>
  <variable name="u_10" index="939" value="29.00000"/>
  <variable name="u_11" index="940" value="25.00000"/>
  <variable name="u_12" index="941" value="74.00000"/>
  <variable name="u_13" index="942" value="61.00000"/>
  <variable name="u_14" index="943" value="78.00000"/>
  <variable name="u_15" index="944" value="78.00000"/>
  <variable name="u_16" index="945" value="62.00000"/>
  <variable name="u_17" index="946" value="30.00000"/>
  <variable name="u_18" index="947" value="12.00000"/>
  <variable name="u_19" index="948" value="76.00000"/>
  <variable name="u_20" index="949" value="78.00000"/>
  <variable name="u_21" index="950" value="78.00000"/>
  <variable name="u_22" index="951" value="46.00000"/>
  <variable name="u_23" index="952" value="68.00000"/>
  <variable name="u_24" index="953" value="78.00000"/>
  <variable name="u_25" index="954" value="43.00000"/>
  <variable name="u_26" index="955" value="40.00000"/>
  <variable name="u_27" index="956" value="72.00000"/>
  <variable name="u_28" index="957" value="78.00000"/>
  <variable name="u_29" index="958" value="69.00000"/>
  <variable name="u_30" index="959" value="78.00000"/>
 </variables>
</CPLEXSolution>
